NAME : 10_3_3_3_(06).dat
COMMENT : Henke, Speranza, Wäscher, 2015
TYPE : MCVRP
DIMENSION : 11
EDGE_WEIGHT_TYPE : DISTANCE_MATRIX
CAPACITY : 1000
VEHICLES : 3
PRODUCT TYPES : 3
COMPARTMENTS : 3
NODE_COORD_SECTION
1 50 50
2 41.86 81.06
3 13.33 25.92
4 29.7 67.04
5 42.24 40.42
6 65.04 15.12
7 34.04 15.27
8 6.59 90.98
9 53.49 25.77
10 17.32 24.04
11 20.94 14.89
DEMAND_SECTION
1 0 0 0
2 122 21 47
3 135 74 11
4 116 92 10
5 84 29 6
6 39 118 59
7 105 34 42
8 4 10 19
9 34 13 47
10 139 95 42
11 90 35 63
DEPOT_SECTION
1
EOF